min: c;

c = 4.28629819709129 * u3_t10_h0 + 3.86461469676993 * u3_t10_h1 + 3.10758095608792 * u3_t4_h2 + 3.10758095608792 * u3_t10_h2 + 2.93394802089263 * u3_t4_h3 + 2.93394802089263 * u3_t10_h3 + 3.04322451994071 * u3_t4_h4 + 3.04322451994071 * u3_t10_h4 + 4.01271408246597 * u3_t4_h5 + 4.01271408246597 * u3_t10_h5 + 3.88868052738247 * u3_t4_h6 + 3.88868052738247 * u3_t10_h6 + 3.81601827167289 * u3_t4_h7 + 3.81601827167289 * u3_t9_h7 + 3.81601827167289 * u3_t10_h7 + 4.9186506655452 * u3_t4_h8 + 4.9186506655452 * u3_t9_h8 + 5.20970733596882 * u3_t4_h9 + 5.20970733596882 * u3_t9_h9 + 5.35228946443725 * u3_t4_h10 + 5.35228946443725 * u3_t6_h10 + 5.35228946443725 * u3_t9_h10 + 4.1898527461559 * u3_t3_h11 + 4.1898527461559 * u3_t4_h11 + 4.1898527461559 * u3_t6_h11 + 4.1898527461559 * u3_t9_h11 + 6.20583434944274 * u3_t3_h12 + 6.20583434944274 * u3_t4_h12 + 6.20583434944274 * u3_t6_h12 + 6.20583434944274 * u3_t9_h12 + 4.97622224304291 * u3_t3_h13 + 4.97622224304291 * u3_t4_h13 + 4.97622224304291 * u3_t5_h13 + 4.97622224304291 * u3_t6_h13 + 4.97622224304291 * u3_t9_h13 + 5.12509898013579 * u3_t3_h14 + 5.12509898013579 * u3_t4_h14 + 5.12509898013579 * u3_t5_h14 + 5.12509898013579 * u3_t6_h14 + 5.12509898013579 * u3_t9_h14 + 6.22861500637536 * u3_t2_h15 + 6.22861500637536 * u3_t3_h15 + 6.22861500637536 * u3_t4_h15 + 6.22861500637536 * u3_t5_h15 + 6.22861500637536 * u3_t6_h15 + 6.22861500637536 * u3_t9_h15 + 6.18824080732993 * u3_t2_h16 + 6.18824080732993 * u3_t4_h16 + 6.18824080732993 * u3_t5_h16 + 6.18824080732993 * u3_t6_h16 + 6.18824080732993 * u3_t9_h16 + 6.08060729078843 * u3_t2_h17 + 6.08060729078843 * u3_t4_h17 + 6.08060729078843 * u3_t6_h17 + 6.08060729078843 * u3_t9_h17 + 6.10261250325332 * u3_t2_h18 + 6.10261250325332 * u3_t6_h18 + 6.10261250325332 * u3_t9_h18 + 5.42220152384648 * u3_t2_h19 + 5.42220152384648 * u3_t9_h19 + 5.22375785375934 * u3_t1_h20 + 5.22375785375934 * u3_t2_h20 + 5.22375785375934 * u3_t8_h20 + 5.22375785375934 * u3_t9_h20 + 4.77935738193128 * u3_t1_h21 + 4.77935738193128 * u3_t2_h21 + 4.77935738193128 * u3_t7_h21 + 4.77935738193128 * u3_t8_h21 + 4.77935738193128 * u3_t9_h21 + 6.04164456300984 * u3_t1_h22 + 6.04164456300984 * u3_t7_h22 + 6.04164456300984 * u3_t8_h22 + 5.49422554405547 * u3_t1_h23 + 5.49422554405547 * u3_t7_h23 + 5.49422554405547 * u3_t8_h23;
0 <= u3_t1_h20 <= 1;
0 <= u3_t1_h21 <= 1;
0 <= u3_t1_h22 <= 1;
0 <= u3_t1_h23 <= 1;
u3_t1_h20 + u3_t1_h21 + u3_t1_h22 + u3_t1_h23 = 2;
0 <= u3_t2_h15 <= 1;
0 <= u3_t2_h16 <= 1;
0 <= u3_t2_h17 <= 1;
0 <= u3_t2_h18 <= 1;
0 <= u3_t2_h19 <= 1;
0 <= u3_t2_h20 <= 1;
0 <= u3_t2_h21 <= 1;
u3_t2_h15 + u3_t2_h16 + u3_t2_h17 + u3_t2_h18 + u3_t2_h19 + u3_t2_h20 + u3_t2_h21 = 3;
0 <= u3_t3_h11 <= 1;
0 <= u3_t3_h12 <= 1;
0 <= u3_t3_h13 <= 1;
0 <= u3_t3_h14 <= 1;
0 <= u3_t3_h15 <= 1;
u3_t3_h11 + u3_t3_h12 + u3_t3_h13 + u3_t3_h14 + u3_t3_h15 = 2;
0 <= u3_t4_h2 <= 1;
0 <= u3_t4_h3 <= 1;
0 <= u3_t4_h4 <= 1;
0 <= u3_t4_h5 <= 1;
0 <= u3_t4_h6 <= 1;
0 <= u3_t4_h7 <= 1;
0 <= u3_t4_h8 <= 1;
0 <= u3_t4_h9 <= 1;
0 <= u3_t4_h10 <= 1;
0 <= u3_t4_h11 <= 1;
0 <= u3_t4_h12 <= 1;
0 <= u3_t4_h13 <= 1;
0 <= u3_t4_h14 <= 1;
0 <= u3_t4_h15 <= 1;
0 <= u3_t4_h16 <= 1;
0 <= u3_t4_h17 <= 1;
u3_t4_h2 + u3_t4_h3 + u3_t4_h4 + u3_t4_h5 + u3_t4_h6 + u3_t4_h7 + u3_t4_h8 + u3_t4_h9 + u3_t4_h10 + u3_t4_h11 + u3_t4_h12 + u3_t4_h13 + u3_t4_h14 + u3_t4_h15 + u3_t4_h16 + u3_t4_h17 = 3;
0 <= u3_t5_h13 <= 1;
0 <= u3_t5_h14 <= 1;
0 <= u3_t5_h15 <= 1;
0 <= u3_t5_h16 <= 1;
u3_t5_h13 + u3_t5_h14 + u3_t5_h15 + u3_t5_h16 = 2;
0 <= u3_t6_h10 <= 1;
0 <= u3_t6_h11 <= 1;
0 <= u3_t6_h12 <= 1;
0 <= u3_t6_h13 <= 1;
0 <= u3_t6_h14 <= 1;
0 <= u3_t6_h15 <= 1;
0 <= u3_t6_h16 <= 1;
0 <= u3_t6_h17 <= 1;
0 <= u3_t6_h18 <= 1;
u3_t6_h10 + u3_t6_h11 + u3_t6_h12 + u3_t6_h13 + u3_t6_h14 + u3_t6_h15 + u3_t6_h16 + u3_t6_h17 + u3_t6_h18 = 2;
0 <= u3_t7_h21 <= 1;
0 <= u3_t7_h22 <= 1;
0 <= u3_t7_h23 <= 1;
u3_t7_h21 + u3_t7_h22 + u3_t7_h23 = 2;
0 <= u3_t8_h20 <= 1;
0 <= u3_t8_h21 <= 1;
0 <= u3_t8_h22 <= 1;
0 <= u3_t8_h23 <= 1;
u3_t8_h20 + u3_t8_h21 + u3_t8_h22 + u3_t8_h23 = 1;
0 <= u3_t9_h7 <= 1;
0 <= u3_t9_h8 <= 1;
0 <= u3_t9_h9 <= 1;
0 <= u3_t9_h10 <= 1;
0 <= u3_t9_h11 <= 1;
0 <= u3_t9_h12 <= 1;
0 <= u3_t9_h13 <= 1;
0 <= u3_t9_h14 <= 1;
0 <= u3_t9_h15 <= 1;
0 <= u3_t9_h16 <= 1;
0 <= u3_t9_h17 <= 1;
0 <= u3_t9_h18 <= 1;
0 <= u3_t9_h19 <= 1;
0 <= u3_t9_h20 <= 1;
0 <= u3_t9_h21 <= 1;
u3_t9_h7 + u3_t9_h8 + u3_t9_h9 + u3_t9_h10 + u3_t9_h11 + u3_t9_h12 + u3_t9_h13 + u3_t9_h14 + u3_t9_h15 + u3_t9_h16 + u3_t9_h17 + u3_t9_h18 + u3_t9_h19 + u3_t9_h20 + u3_t9_h21 = 2;
0 <= u3_t10_h0 <= 1;
0 <= u3_t10_h1 <= 1;
0 <= u3_t10_h2 <= 1;
0 <= u3_t10_h3 <= 1;
0 <= u3_t10_h4 <= 1;
0 <= u3_t10_h5 <= 1;
0 <= u3_t10_h6 <= 1;
0 <= u3_t10_h7 <= 1;
u3_t10_h0 + u3_t10_h1 + u3_t10_h2 + u3_t10_h3 + u3_t10_h4 + u3_t10_h5 + u3_t10_h6 + u3_t10_h7 = 3;
